
List of user-set options:

                                    Name   Value                used
                           compl_inf_tol = 1                     yes
                         constr_viol_tol = 1                     yes
                            dual_inf_tol = 1000                  yes
                           linear_solver = ma97                  yes
                              ma86_small = 1e-30                  no
                                  ma86_u = 0.0001                 no
                              ma97_order = best                  yes
                              ma97_small = 1e-30                 yes
                            ma97_switch1 = at_start              yes
                            ma97_switch2 = od_hd_reuse           yes
                                  ma97_u = 1e-06                 yes
                               ma97_umax = 0.5                   yes
                                max_iter = 2000                  yes
                    max_refinement_steps = 20                    yes
                    min_refinement_steps = 5                     yes
                                 mu_init = 1e-06                 yes
           mu_superlinear_decrease_power = 1.25                  yes
                   nlp_scaling_min_value = 1e-08                 yes
                        option_file_name = Preset_Case:_188_NCP.opt  yes
                             output_file = ./tmp/Preset_Case:_188_NCP.output  yes
                      print_user_options = yes                   yes
        required_infeasibility_reduction = 1                      no
                                     tol = 1e-08                 yes
                   warm_start_bound_frac = 1e-20                 yes
                   warm_start_bound_push = 1e-20                 yes
                   warm_start_init_point = yes                   yes
              warm_start_mult_bound_push = 1e-20                 yes
                warm_start_mult_init_max = 1e+40                 yes
             warm_start_slack_bound_frac = 1e-20                 yes
             warm_start_slack_bound_push = 1e-20                 yes

******************************************************************************
This program contains Ipopt, a library for large-scale nonlinear optimization.
 Ipopt is released as open source code under the Eclipse Public License (EPL).
         For more information visit http://projects.coin-or.org/Ipopt
******************************************************************************

This is Ipopt version 3.12.10, running with linear solver ma97.

Number of nonzeros in equality constraint Jacobian...:   117140
Number of nonzeros in inequality constraint Jacobian.:      213
Number of nonzeros in Lagrangian Hessian.............:    47462

Total number of variables............................:    29971
                     variables with only lower bounds:    11312
                variables with lower and upper bounds:    15132
                     variables with only upper bounds:        0
Total number of equality constraints.................:    29864
Total number of inequality constraints...............:       25
        inequality constraints with only lower bounds:        4
   inequality constraints with lower and upper bounds:        0
        inequality constraints with only upper bounds:       21

iter    objective    inf_pr   inf_du lg(mu)  ||d||  lg(rg) alpha_du alpha_pr  ls
   0 -1.8834916e-02 1.83e-01 1.00e+00  -6.0 0.00e+00    -  0.00e+00 0.00e+00   0
In iteration 0, 1 Slack too small, adjusting variable bound
   1 -1.8834916e-02 1.83e-01 8.59e+02  -6.0 5.11e+07  -4.0 1.37e-07 2.87e-16f  1
   2 -1.8849073e-02 1.83e-01 8.58e+02  -6.0 1.28e+03  -4.5 9.29e-04 2.39e-03f  1
   3 -1.8877841e-02 1.82e-01 3.00e+03  -6.0 1.37e+03  -5.0 1.21e-01 2.96e-03f  1
   4 -1.9286473e-02 1.82e-01 3.00e+03  -6.0 1.59e+03  -5.4 6.10e-03 3.23e-03f  1
   5 -1.9262580e-02 1.81e-01 2.91e+03  -6.0 1.73e+03  -5.9 2.49e-02 1.99e-03h  4
   6 -1.9123432e-02 1.38e+00 2.89e+03  -6.0 1.73e+03  -6.4 5.87e-03 5.87e-03s 15
   7 -1.9123827e-02 1.39e+00 2.89e+03  -6.0 1.46e+03  -6.9 5.82e-04 5.82e-04s 15
   8 -1.9149031e-02 1.34e+00 2.88e+03  -6.0 2.68e+03  -7.3 3.52e-03 3.52e-03s 15
   9r-1.9149031e-02 1.34e+00 1.00e+03  -0.2 0.00e+00  -7.8 0.00e+00 0.00e+00R  1
iter    objective    inf_pr   inf_du lg(mu)  ||d||  lg(rg) alpha_du alpha_pr  ls
  10r-1.9179168e-02 1.34e+00 5.65e+03  -0.2 1.33e+04    -  2.24e-06 6.20e-07f  1
  11r-1.9179168e-02 1.34e+00 9.99e+02  -0.2 0.00e+00    -  0.00e+00 3.20e-07R  2
  12r-1.9179608e-02 1.34e+00 4.31e+03  -0.2 1.97e+04    -  9.62e-07 4.90e-08f  1
  13 -1.9179824e-02 1.34e+00 1.29e+06  -6.0 3.43e+02    -  1.72e-02 2.96e-05h  1
  14 -1.9181219e-02 1.34e+00 5.74e+06  -6.0 8.53e+02    -  3.21e-05 1.43e-04h  1
  15 -1.9205022e-02 1.33e+00 5.72e+06  -6.0 8.34e+02    -  2.25e-03 2.45e-03h  1
  16 -1.9234466e-02 1.33e+00 5.70e+06  -6.0 8.06e+02    -  2.85e-03 3.25e-03f  1
  17 -1.9474901e-02 1.30e+00 5.54e+06  -6.0 7.73e+02    -  6.34e-03 2.85e-02f  1
  18 -1.9787580e-02 1.26e+00 5.36e+06  -6.0 5.27e+02    -  3.98e-02 3.26e-02h  1
  19 -2.0010593e-02 1.23e+00 5.26e+06  -6.0 4.01e+02    -  5.67e-02 1.90e-02h  1
iter    objective    inf_pr   inf_du lg(mu)  ||d||  lg(rg) alpha_du alpha_pr  ls
  20 -2.0016014e-02 1.23e+00 5.25e+06  -6.0 5.46e+02    -  7.15e-03 3.59e-04h  1
  21 -1.9830639e-02 1.19e+00 5.12e+06  -6.0 4.09e+02    -  2.87e-06 2.61e-02h  1
  22 -1.9727104e-02 1.18e+00 5.04e+06  -6.0 3.90e+02    -  8.97e-02 1.42e-02h  2
  23 -1.9721308e-02 1.17e+00 5.04e+06  -6.0 3.65e+02    -  6.06e-02 8.41e-04h  5
  24 -1.9715990e-02 1.17e+00 5.04e+06  -6.0 3.64e+02    -  3.07e-02 7.99e-04h  5
  25 -1.9711332e-02 1.17e+00 5.03e+06  -6.0 4.55e+02    -  2.33e-08 8.61e-04f  5
  26 -1.9710721e-02 1.17e+00 5.03e+06  -6.0 2.36e+02  -2.9 2.77e-02 9.40e-05h  2
  27 -1.9710157e-02 1.17e+00 5.03e+06  -6.0 1.83e+02  -2.4 5.40e-02 1.16e-04h  1
  28 -1.9647152e-02 1.16e+00 4.97e+06  -6.0 3.63e+02    -  2.15e-04 1.19e-02h  1
  29r-1.9647152e-02 1.16e+00 9.99e+02  -0.3 0.00e+00  -2.9 0.00e+00 1.38e-07R  2
iter    objective    inf_pr   inf_du lg(mu)  ||d||  lg(rg) alpha_du alpha_pr  ls
  30r-1.9623391e-02 1.16e+00 9.99e+02  -0.3 3.37e+05    -  4.80e-09 1.80e-07f  1
  31r-1.9618756e-02 1.16e+00 2.79e+03  -0.3 4.37e+03    -  1.03e-05 6.73e-07f  1
  32 -1.9618843e-02 1.16e+00 6.35e+04  -6.0 3.74e+02    -  1.14e-03 1.60e-05h  1
  33 -1.9627123e-02 1.16e+00 5.51e+06  -6.0 3.74e+02    -  1.78e-05 1.52e-03h  1
  34 -1.9645160e-02 1.15e+00 5.49e+06  -6.0 3.72e+02    -  4.23e-03 3.25e-03h  1
  35 -1.9695772e-02 1.14e+00 5.45e+06  -6.0 3.69e+02    -  7.52e-03 8.76e-03h  1
  36 -1.9953164e-02 1.08e+00 5.23e+06  -6.0 3.60e+02    -  2.32e-02 4.04e-02h  1
  37 -2.0134519e-02 1.06e+00 5.12e+06  -6.0 3.24e+02    -  4.57e-02 1.97e-02h  1
  38r-2.0134519e-02 1.06e+00 9.99e+02  -0.3 0.00e+00    -  0.00e+00 2.31e-07R  2
  39r-2.0136011e-02 1.06e+00 1.94e+03  -0.3 8.72e+03    -  3.95e-06 3.08e-07f  1
iter    objective    inf_pr   inf_du lg(mu)  ||d||  lg(rg) alpha_du alpha_pr  ls
  40 -2.0136224e-02 1.06e+00 1.04e+06  -6.0 3.36e+02    -  2.43e-02 2.31e-05h  1
  41 -2.0149916e-02 1.06e+00 5.80e+07  -6.0 3.55e+02    -  2.55e-05 1.42e-03h  1
  42 -2.0226062e-02 1.05e+00 5.76e+07  -6.0 6.38e+02    -  2.74e-03 6.29e-03h  1
  43 -2.0262741e-02 1.05e+00 5.75e+07  -6.0 6.50e+02    -  1.65e-02 2.82e-03h  1
  44 -2.0672788e-02 1.02e+00 5.58e+07  -6.0 6.61e+02    -  2.53e-02 3.00e-02h  1
  45r-2.0672788e-02 1.02e+00 1.00e+03  -0.4 0.00e+00    -  0.00e+00 4.53e-07R  2
  46r-2.0672811e-02 1.02e+00 1.00e+03  -0.4 1.19e+04    -  1.29e-07 3.31e-09f  2
  47r-2.0672811e-02 1.02e+00 9.99e+02  -0.4 0.00e+00    -  0.00e+00 8.52e-08R  2
  48r-2.0673151e-02 1.02e+00 9.99e+02  -0.4 1.03e+04    -  2.84e-06 3.33e-08f  1
  49 -2.0673642e-02 1.02e+00 1.54e+05  -6.0 3.15e+02    -  2.81e-02 4.27e-05h  1
iter    objective    inf_pr   inf_du lg(mu)  ||d||  lg(rg) alpha_du alpha_pr  ls
  50 -2.0686619e-02 1.02e+00 2.81e+06  -6.0 3.30e+02    -  6.07e-05 1.10e-03h  1
  51 -2.0772221e-02 1.01e+00 2.80e+06  -6.0 6.49e+02    -  1.08e-01 5.71e-03h  1
  52 -2.2603491e-02 1.60e+00 2.62e+06  -6.0 7.19e+02    -  6.94e-03 1.16e-01h  1
  53 -2.2719015e-02 1.59e+00 2.61e+06  -6.0 5.27e+02    -  4.04e-02 6.06e-03h  1
  54 -2.3090746e-02 1.55e+00 2.53e+06  -6.0 4.02e+02    -  3.71e-02 3.07e-02h  1
  55 -2.3472210e-02 1.89e+00 2.43e+06  -6.0 3.78e+02    -  6.64e-02 3.70e-02h  1
  56 -2.4080113e-02 2.14e+00 2.27e+06  -6.0 3.92e+02    -  1.80e-01 6.80e-02h  1
  57 -2.4677774e-02 2.15e+00 2.11e+06  -6.0 3.78e+02    -  6.10e-03 6.76e-02h  1
  58r-2.4677774e-02 2.15e+00 1.00e+03  -0.2 0.00e+00    -  0.00e+00 3.65e-08R  2
  59r-2.4675219e-02 2.14e+00 1.00e+03  -0.2 8.67e+03    -  4.50e-06 8.46e-07f  1
iter    objective    inf_pr   inf_du lg(mu)  ||d||  lg(rg) alpha_du alpha_pr  ls
  60 -2.4675654e-02 2.14e+00 8.13e+05  -6.0 2.53e+02    -  6.20e-02 4.04e-05h  1
  61 -2.4676767e-02 2.14e+00 2.27e+06  -6.0 3.25e+02    -  4.80e-05 1.34e-04h  1
  62 -2.4677409e-02 2.14e+00 3.03e+06  -6.0 3.51e+02    -  2.90e-01 1.32e-04h  1
  63 -2.4696968e-02 2.14e+00 3.55e+06  -6.0 4.28e+02    -  3.15e-04 2.57e-03h  1
  64r-2.4696968e-02 2.14e+00 1.00e+03  -0.2 0.00e+00    -  0.00e+00 1.68e-09R  2
  65r-2.4697316e-02 2.14e+00 1.23e+03  -0.2 1.00e+04    -  6.62e-06 2.52e-07f  1
  66r-2.4697316e-02 2.14e+00 9.99e+02  -0.2 0.00e+00    -  0.00e+00 4.07e-07R  5
  67r-2.4697911e-02 2.14e+00 9.99e+02  -0.2 1.27e+04    -  1.41e-06 9.07e-08f  1
  68 -2.4698597e-02 2.14e+00 6.98e+04  -6.0 1.86e+02    -  7.88e-02 6.32e-05h  1
  69 -2.4711987e-02 2.13e+00 4.86e+05  -6.0 2.60e+02    -  1.78e-04 1.24e-03h  1
iter    objective    inf_pr   inf_du lg(mu)  ||d||  lg(rg) alpha_du alpha_pr  ls
  70r-2.4711987e-02 2.13e+00 9.99e+02  -0.2 0.00e+00    -  0.00e+00 2.75e-09R  2
  71r-2.4712313e-02 2.13e+00 1.48e+03  -0.2 1.14e+04    -  4.34e-06 5.61e-08f  1
  72r-2.4712313e-02 2.13e+00 9.99e+02  -0.2 0.00e+00    -  0.00e+00 3.00e-07R  4
  73r-2.4712439e-02 2.13e+00 4.71e+03  -0.2 1.17e+04    -  1.85e-06 2.24e-08f  1
  74 -2.4712974e-02 2.13e+00 4.45e+06  -6.0 2.29e+02    -  6.70e-02 5.02e-05h  1
  75 -2.4715820e-02 2.13e+00 2.33e+07  -6.0 2.67e+02    -  5.17e-05 2.71e-04h  1
  76r-2.4715820e-02 2.13e+00 9.99e+02  -0.2 0.00e+00    -  0.00e+00 1.70e-09R  2
  77r-2.4716360e-02 2.13e+00 4.46e+03  -0.2 1.11e+04    -  4.61e-06 1.01e-07f  1
  78 -2.4716378e-02 2.13e+00 5.75e+02  -6.0 2.50e+02    -  1.08e-05 1.69e-06h  2
  79 -2.4717597e-02 2.13e+00 2.04e+04  -6.0 2.55e+02    -  3.82e-06 1.15e-04h  1
iter    objective    inf_pr   inf_du lg(mu)  ||d||  lg(rg) alpha_du alpha_pr  ls
  80 -2.4719126e-02 2.13e+00 2.05e+04  -6.0 2.58e+02    -  1.63e-04 1.44e-04h  1
  81 -2.4723008e-02 2.13e+00 2.04e+04  -6.0 2.58e+02    -  9.58e-04 3.65e-04f  1
  82 -2.4741101e-02 2.13e+00 2.02e+04  -6.0 2.58e+02    -  8.56e-04 1.70e-03f  1
  83 -2.4794096e-02 2.12e+00 2.00e+04  -6.0 2.58e+02    -  8.72e-03 5.01e-03h  1
  84 -2.4898921e-02 2.10e+00 1.98e+04  -6.0 2.59e+02    -  1.01e-02 1.00e-02h  1
  85 -2.4910153e-02 2.09e+00 5.29e+05  -6.0 3.91e+02    -  6.31e-02 1.05e-03h  1
  86 -2.5128489e-02 2.02e+00 3.74e+05  -6.0 3.71e+02    -  2.54e-02 4.05e-02h  1
  87 -2.5231282e-02 1.98e+00 1.98e+06  -6.0 3.70e+02    -  2.06e-01 2.25e-02h  1
  88 -2.5525010e-02 1.91e+00 2.47e+06  -6.0 4.18e+02    -  1.14e-01 3.82e-02h  1
  89 -2.5526664e-02 1.91e+00 3.03e+06  -6.0 4.49e+02    -  1.06e-01 1.80e-04h  1
iter    objective    inf_pr   inf_du lg(mu)  ||d||  lg(rg) alpha_du alpha_pr  ls
  90 -2.5725452e-02 1.87e+00 3.16e+06  -6.0 4.46e+02    -  1.28e-01 2.16e-02h  1
  91 -2.5734731e-02 1.87e+00 3.16e+06  -6.0 3.38e+02    -  1.19e-02 5.72e-04h  1
  92 -2.7023415e-02 1.55e+00 3.05e+06  -6.0 3.86e+02    -  1.61e-07 1.45e-01f  1
  93r-2.7023415e-02 1.55e+00 1.00e+03  -0.3 0.00e+00    -  0.00e+00 3.36e-07R  2
  94r-2.7030880e-02 1.55e+00 1.00e+03  -0.3 8.36e+03    -  2.19e-06 1.34e-06f  1
  95 -2.7030959e-02 1.55e+00 2.32e+06  -6.0 1.92e+02    -  1.16e-01 1.24e-05h  1
  96 -2.7032703e-02 1.55e+00 5.10e+07  -6.0 5.54e+02    -  1.78e-05 3.92e-04h  1
  97 -2.7046179e-02 1.55e+00 5.09e+07  -6.0 2.81e+02    -  7.68e-02 2.67e-03h  1
  98 -2.7049566e-02 1.54e+00 5.09e+07  -6.0 3.78e+02    -  7.48e-04 5.06e-04h  1
  99 -2.7106190e-02 1.54e+00 5.06e+07  -6.0 8.35e+02    -  2.04e-04 5.67e-03h  1
iter    objective    inf_pr   inf_du lg(mu)  ||d||  lg(rg) alpha_du alpha_pr  ls
 100 -2.7111843e-02 1.54e+00 5.06e+07  -6.0 8.29e+02    -  3.15e-04 4.87e-04h  1
 101 -2.7113448e-02 1.54e+00 5.06e+07  -6.0 8.02e+02    -  3.48e-04 1.68e-04f  1
 102 -2.7118904e-02 1.54e+00 5.06e+07  -6.0 7.96e+02    -  4.82e-04 6.24e-04f  1
 103 -2.7122093e-02 1.54e+00 5.05e+07  -6.0 7.98e+02    -  1.14e-03 4.44e-04h  1
 104 -2.7097830e-02 1.53e+00 4.98e+07  -6.0 7.94e+02    -  4.04e-04 1.58e-02f  1
 105 -2.3681809e-02 1.51e+00 4.92e+07  -6.0 5.98e+02    -  6.26e-04 1.08e-02h  1
 106 -2.0975684e-02 1.51e+00 4.91e+07  -6.0 2.50e+02    -  4.92e-03 2.63e-03h  6
 107 -1.9569388e-02 1.51e+00 4.90e+07  -6.0 2.50e+02    -  2.77e-02 1.39e-03h  7
 108 -1.8664025e-02 1.51e+00 4.90e+07  -6.0 2.52e+02    -  9.93e-03 9.02e-04h  8
 109 -1.8542490e-02 1.51e+00 4.90e+07  -6.0 2.53e+02    -  3.66e-02 1.22e-04h 11
iter    objective    inf_pr   inf_du lg(mu)  ||d||  lg(rg) alpha_du alpha_pr  ls
 110 -7.1256859e-03 1.49e+00 4.84e+07  -6.0 2.57e+02    -  1.15e-02 1.15e-02s 20
 111  6.7036582e-02 1.37e+00 4.46e+07  -6.0 2.55e+02    -  7.96e-02 7.96e-02s 20
 112  1.0830561e-01 1.27e+00 4.13e+07  -6.0 2.42e+02    -  7.39e-02 7.39e-02s 20
 113  1.0935260e-01 1.26e+00 4.11e+07  -6.0 2.21e+02    -  3.16e-03 3.16e-03s 20
 114  1.5826146e-01 1.06e+00 3.49e+07  -6.0 2.25e+02    -  1.51e-01 1.51e-01s 20
 115  1.5855476e-01 1.05e+00 3.44e+07  -6.0 2.01e+02    -  1.54e-02 1.54e-02s 20
 116  1.5916221e-01 1.01e+00 3.31e+07  -6.0 1.89e+02    -  3.61e-02 3.61e-02s 20
 117  1.5522339e-01 9.24e-01 3.31e+07  -6.0 1.82e+02    -  2.66e-01 0.00e+00S 20
 118  1.4049706e-01 8.37e-01 2.97e+07  -6.0 1.15e+02    -  3.37e-01 1.04e-01h  1
 119  8.9540112e-02 5.72e-01 1.92e+07  -6.0 9.90e+01    -  2.08e-01 3.53e-01f  1
iter    objective    inf_pr   inf_du lg(mu)  ||d||  lg(rg) alpha_du alpha_pr  ls
 120  6.2028290e-03 5.88e-01 4.99e+06  -6.0 6.24e+01    -  1.80e-02 7.40e-01h  1
 121 -1.0341387e-02 4.57e-01 2.92e+07  -6.0 1.05e+02    -  2.05e-03 3.62e-01h  1
 122 -1.0337766e-02 4.56e-01 2.91e+07  -6.0 7.86e+02    -  1.82e-03 3.67e-04h  1
 123 -2.9699332e-02 1.84e+00 1.25e+07  -6.0 7.91e+01    -  4.31e-02 7.03e-01f  1
 124 -3.1594236e-02 1.58e+00 1.75e+07  -6.0 1.11e+02    -  3.56e-05 1.61e-01h  1
 125r-3.1594236e-02 1.58e+00 1.00e+03  -0.3 0.00e+00    -  0.00e+00 2.56e-07R  3
 126r-3.1042268e-02 1.58e+00 4.62e+03  -0.3 5.30e+03    -  1.05e-06 2.08e-06f  1
 127 -3.1127129e-02 1.56e+00 1.02e+06  -6.0 1.81e+01    -  2.10e-02 1.05e-02h  1
 128 -3.2021105e-02 1.39e+00 2.05e+07  -6.0 1.78e+01    -  1.05e-02 1.12e-01h  1
 129 -3.2544256e-02 1.29e+00 1.90e+07  -6.0 1.58e+01    -  8.20e-02 7.28e-02f  1
iter    objective    inf_pr   inf_du lg(mu)  ||d||  lg(rg) alpha_du alpha_pr  ls
 130 -3.4086723e-02 1.02e+00 1.51e+07  -6.0 1.01e+01    -  1.34e-01 2.09e-01h  1
 131 -3.9603726e-02 5.04e-02 5.31e+05  -6.0 9.14e+00    -  2.14e-01 9.65e-01h  1
 132 -3.9896343e-02 5.05e-03 2.27e+06  -6.0 4.20e+00    -  9.20e-01 1.00e+00h  1
 133 -4.0044777e-02 2.13e-04 5.47e+06  -6.0 1.88e+00    -  7.81e-01 1.00e+00h  1
 134 -4.3195968e-02 7.92e-02 5.42e+06  -6.0 1.34e+01    -  1.90e-01 1.00e+00h  1
 135 -4.4932176e-02 1.26e-02 2.31e+06  -6.0 1.24e+01    -  5.73e-01 1.00e+00h  1
 136 -4.9321846e-02 7.47e-02 1.20e+06  -6.0 3.06e+01    -  4.83e-01 8.34e-01h  1
 137 -5.1722013e-02 7.86e-02 1.19e+06  -6.0 4.79e+01    -  6.91e-03 7.02e-01h  1
 138 -5.2801170e-02 8.00e-02 7.95e+05  -6.0 3.96e+01    -  3.31e-01 3.74e-01f  1
 139 -5.7771429e-02 3.33e-01 7.94e+05  -6.0 7.80e+01    -  1.83e-03 1.00e+00h  1
iter    objective    inf_pr   inf_du lg(mu)  ||d||  lg(rg) alpha_du alpha_pr  ls
 140 -6.3029080e-02 3.42e-01 2.46e+05  -6.0 8.19e+01    -  6.90e-01 1.00e+00h  1
 141 -7.2347300e-02 1.47e+00 1.14e+05  -6.0 3.02e+02    -  5.35e-01 5.37e-01h  1
 142 -7.3284385e-02 1.45e+00 1.07e+05  -6.0 9.18e+02    -  5.92e-02 1.96e-02h  1
 143 -7.5149784e-02 6.59e-01 9.31e+04  -6.0 2.21e+02    -  1.33e-01 1.37e-01h  1
 144 -7.6303924e-02 6.79e-01 7.62e+04  -6.0 1.88e+02    -  1.82e-01 1.09e-01h  1
 145 -7.8855308e-02 2.01e+00 3.88e+04  -6.0 2.16e+02    -  4.91e-01 2.36e-01h  1
 146 -8.2041692e-02 5.23e+00 1.60e+04  -6.0 3.77e+02    -  5.87e-01 2.73e-01h  1
 147 -8.2943337e-02 5.21e+00 6.83e+03  -6.0 9.87e+02    -  5.74e-01 6.52e-02h  1
 148 -8.9449713e-02 1.57e+01 5.86e+03  -6.0 3.39e+03    -  1.42e-01 2.59e-01h  1
 149 -8.9990855e-02 1.50e+01 4.18e+03  -6.0 1.45e+03    -  2.88e-01 4.33e-02h  1
iter    objective    inf_pr   inf_du lg(mu)  ||d||  lg(rg) alpha_du alpha_pr  ls
 150 -9.3753795e-02 1.41e+01 3.02e+03  -6.0 1.49e+03    -  2.77e-01 2.28e-01h  1
 151 -9.3733259e-02 1.34e+01 7.14e+03  -6.0 2.65e+00  -3.4 1.88e-03 4.83e-02h  1
 152 -9.5341417e-02 1.15e+01 6.66e+03  -6.0 1.49e+03    -  8.07e-04 1.42e-01h  1
 153 -9.5341042e-02 1.14e+01 6.64e+03  -6.0 1.05e+01  -3.9 6.42e-03 7.31e-03h  1
 154 -9.5341710e-02 1.14e+01 5.75e+03  -6.0 1.04e+01  -4.4 3.81e-02 3.66e-03h  1
 155 -9.5132590e-02 2.65e+00 1.11e+04  -6.0 2.72e+00  -4.8 7.34e-02 7.68e-01h  1
 156 -9.5238153e-02 1.72e+00 7.17e+03  -6.0 4.44e+00  -5.3 3.48e-01 3.54e-01h  1
 157 -9.5349108e-02 1.39e+00 5.60e+03  -6.0 7.45e+00  -5.8 9.19e-01 1.97e-01h  1
 158 -9.5471594e-02 1.23e+00 4.92e+03  -6.0 1.19e+01  -6.3 9.99e-01 1.22e-01h  1
 159 -9.5778388e-02 9.72e-01 3.66e+03  -6.0 2.07e+01  -6.7 1.00e+00 2.57e-01h  1
iter    objective    inf_pr   inf_du lg(mu)  ||d||  lg(rg) alpha_du alpha_pr  ls
 160 -9.6062584e-02 7.97e-01 2.99e+03  -6.0 6.59e+01  -7.2 1.00e+00 1.81e-01h  1
 161 -9.7002950e-02 6.26e-01 1.96e+03  -6.0 2.18e+02  -7.7 1.00e+00 3.45e-01h  1
 162 -9.8342366e-02 7.45e-01 1.39e+03  -6.0 3.38e+02  -8.2 7.64e-01 2.99e-01h  1
 163 -9.9639332e-02 9.31e-01 1.46e+03  -6.0 1.15e+03  -8.7 3.14e-01 1.55e-01h  1
 164 -1.0142606e-01 1.02e+00 2.07e+03  -6.0 8.74e+02  -9.1 8.71e-01 1.55e-01h  1
 165 -1.0262643e-01 9.63e-01 1.72e+03  -6.0 1.39e+03  -9.6 5.64e-01 8.01e-02h  1
 166 -1.0640445e-01 5.68e+00 2.04e+03  -6.0 3.29e+03 -10.1 1.45e-02 2.26e-01h  1
 167 -1.0647355e-01 8.35e+00 1.92e+03  -6.0 1.45e+05 -10.6 6.13e-03 3.18e-03h  1
 168 -1.0805539e-01 8.09e+00 2.02e+03  -6.0 4.45e+03 -10.1 7.05e-02 9.59e-02h  1
 169 -1.0817523e-01 8.15e+00 2.01e+03  -6.0 1.11e+04 -10.6 8.03e-03 8.84e-03h  1
iter    objective    inf_pr   inf_du lg(mu)  ||d||  lg(rg) alpha_du alpha_pr  ls
 170 -1.1071697e-01 7.39e+00 2.68e+03  -6.0 4.96e+03 -10.2 9.49e-02 2.10e-01f  1
 171 -1.1218041e-01 1.11e+01 2.73e+03  -6.0 8.89e+03 -10.7 9.16e-02 1.09e-01h  1
 172 -1.1267471e-01 1.03e+01 2.56e+03  -6.0 1.62e+03  -9.3 8.20e-02 6.75e-02h  1
 173 -1.1503659e-01 7.62e+00 1.83e+03  -6.0 2.87e+03  -9.8 4.82e-01 2.85e-01h  1
 174 -1.1518370e-01 7.53e+00 1.80e+03  -6.0 1.00e+04 -10.3 4.14e-02 1.38e-02h  1
 175 -1.1618911e-01 6.59e+00 1.55e+03  -6.0 2.34e+03  -9.9 2.21e-01 1.34e-01h  1
 176 -1.1715953e-01 6.48e+00 1.33e+03  -6.0 7.01e+03 -10.3 5.65e-02 1.48e-01h  1
 177 -1.1725020e-01 6.23e+00 1.28e+03  -6.0 1.12e+03  -8.1 1.34e-01 3.83e-02h  1
 178 -1.1757237e-01 2.42e+00 5.11e+02  -6.0 1.36e+02  -8.6 2.41e-01 6.13e-01h  1
 179 -1.1883273e-01 8.35e+00 9.51e+02  -6.0 1.43e+03  -9.1 6.05e-02 3.83e-01h  1
iter    objective    inf_pr   inf_du lg(mu)  ||d||  lg(rg) alpha_du alpha_pr  ls
 180 -1.2132058e-01 2.68e+01 2.34e+03  -6.0 2.10e+03  -9.5 5.97e-02 4.96e-01h  1
 181 -1.2134403e-01 2.63e+01 1.03e+03  -6.0 1.26e+04 -10.0 9.26e-02 1.92e-02h  1
 182 -1.2237563e-01 2.49e+01 1.32e+03  -6.0 2.20e+03  -9.6 8.02e-02 1.45e-01h  1
 183 -1.2238015e-01 2.49e+01 1.25e+03  -6.0 1.05e+02  -6.5 1.04e-03 1.32e-03h  1
 184 -1.2240696e-01 2.39e+01 3.44e+03  -6.0 3.11e+02  -6.9 2.93e-03 4.01e-02h  1
 185 -1.2243129e-01 2.34e+01 3.27e+03  -6.0 1.17e+02  -6.5 1.86e-02 1.94e-02h  1
 186 -1.2242509e-01 2.21e+01 9.16e+03  -6.0 3.80e+02  -7.0 6.25e-03 5.68e-02h  1
 187 -1.2250001e-01 2.01e+01 8.34e+03  -6.0 1.32e+02  -7.5 5.83e-02 9.00e-02h  1
 188 -1.2293482e-01 4.96e-01 2.41e+03  -6.0 3.30e+01  -7.0 1.94e-01 1.00e+00h  1
 189 -1.2313861e-01 2.57e-01 1.84e+02  -6.0 3.74e+01  -7.5 5.33e-01 1.00e+00h  1
iter    objective    inf_pr   inf_du lg(mu)  ||d||  lg(rg) alpha_du alpha_pr  ls
 190 -1.2370524e-01 6.06e-01 6.61e+01  -6.0 1.38e+02  -8.0 5.97e-01 8.03e-01h  1
 191 -1.2466269e-01 7.87e-01 2.23e+02  -6.0 1.53e+02  -8.5 1.00e+00 1.00e+00h  1
 192 -1.2489493e-01 7.06e-01 2.48e+02  -6.0 2.52e+02  -8.0 1.83e-01 1.50e-01h  1
 193 -1.2560060e-01 7.37e-01 3.82e+04  -6.0 1.78e+02  -8.5 4.65e-01 1.00e+00h  1
 194 -1.2598504e-01 6.57e-01 3.17e+04  -6.0 3.21e+02  -8.1 1.83e-01 1.70e-01h  1
 195 -1.2701196e-01 1.92e+00 2.14e+02  -6.0 2.31e+02  -8.6 3.49e-01 1.00e+00h  1
 196 -1.2716732e-01 1.80e+00 2.13e+02  -6.0 8.10e+02  -9.0 2.68e-01 5.67e-02h  1
 197 -1.2795637e-01 1.01e+00 1.28e+02  -6.0 1.29e+03  -9.5 6.16e-01 4.35e-01h  1
 198 -1.2796457e-01 1.01e+00 1.28e+02  -6.0 4.63e+03  -9.1 8.08e-03 4.33e-03h  1
 199 -1.2866570e-01 8.54e-01 8.25e+01  -6.0 1.45e+03  -9.6 2.97e-01 3.48e-01h  1
iter    objective    inf_pr   inf_du lg(mu)  ||d||  lg(rg) alpha_du alpha_pr  ls
 200 -1.2874695e-01 7.09e-01 6.65e+02  -6.0 2.47e+02  -6.4 4.01e-02 1.74e-01h  1
 201 -1.2872809e-01 3.57e-01 3.73e+02  -6.0 1.30e+01  -6.9 1.00e+00 4.98e-01h  1
 202 -1.2874334e-01 1.82e-02 7.37e+01  -6.0 8.17e+00  -6.5 5.16e-01 1.00e+00h  1
 203 -1.2876482e-01 7.45e-03 2.55e+01  -6.0 1.68e+01  -7.0 1.00e+00 6.58e-01h  1
 204 -1.2884460e-01 2.29e-02 1.01e+01  -6.0 5.50e+01  -7.4 4.21e-01 6.04e-01f  1
 205 -1.2906394e-01 4.16e-01 3.74e+00  -6.0 1.22e+02  -7.9 1.00e+00 1.00e+00f  1
 206 -1.2920640e-01 5.15e-01 6.62e+00  -6.0 3.28e+02  -8.4 6.09e-01 2.67e-01h  1
 207 -1.2933661e-01 4.07e-01 7.05e+01  -6.0 2.31e+02  -8.9 1.93e-01 2.48e-01h  1
 208 -1.2945039e-01 4.24e-01 1.94e+02  -6.0 2.48e+02  -8.4 8.16e-02 2.80e-01h  1
 209 -1.2952426e-01 3.58e-01 5.54e+03  -6.0 1.58e+02  -7.1 1.79e-02 3.32e-01h  1
iter    objective    inf_pr   inf_du lg(mu)  ||d||  lg(rg) alpha_du alpha_pr  ls
 210 -1.2948488e-01 1.93e-01 1.40e+03  -6.0 1.59e+01  -6.7 1.00e+00 7.85e-01h  1
 211 -1.2952494e-01 2.33e-03 2.34e+02  -6.0 2.87e+00  -6.3 8.07e-01 1.00e+00f  1
 212 -1.2953604e-01 1.73e-03 8.02e-02  -6.0 8.01e+00  -6.7 1.00e+00 1.00e+00h  1
 213 -1.2957194e-01 1.53e-02 2.00e-01  -6.0 2.38e+01  -7.2 1.00e+00 1.00e+00h  1
 214 -1.2967751e-01 1.34e-01 2.30e+00  -6.0 7.04e+01  -7.7 1.00e+00 1.00e+00h  1
 215 -1.2991396e-01 7.57e-01 1.19e+01  -6.0 2.01e+02  -8.2 9.19e-01 8.25e-01h  1
 216 -1.2998784e-01 7.36e-01 6.80e+01  -6.0 4.11e+02  -8.7 1.42e-02 1.36e-01h  1
 217 -1.2995647e-01 3.28e-01 4.96e+04  -6.0 3.20e+01  -6.4 3.67e-01 5.67e-01h  1
 218 -1.2996032e-01 3.19e-01 1.37e+05  -6.0 4.75e+01  -6.9 8.55e-01 2.88e-02h  1
 219 -1.2997679e-01 2.01e-02 5.15e+01  -6.0 4.57e+00  -6.5 9.32e-01 1.00e+00f  1
iter    objective    inf_pr   inf_du lg(mu)  ||d||  lg(rg) alpha_du alpha_pr  ls
 220 -1.2998716e-01 3.13e-03 3.46e-02  -6.0 1.07e+01  -6.9 1.00e+00 1.00e+00h  1
 221 -1.3002158e-01 2.56e-02 2.68e-01  -6.0 3.11e+01  -7.4 1.00e+00 1.00e+00h  1
 222 -1.3012046e-01 1.83e-01 2.00e+00  -6.0 8.33e+01  -7.9 1.00e+00 1.00e+00h  1
 223 -1.3030444e-01 6.75e-01 7.72e+00  -6.0 1.64e+02  -8.4 1.00e+00 9.78e-01h  1
 224 -1.3047852e-01 1.07e-01 1.29e+00  -6.0 1.55e+02  -8.9 1.00e+00 1.00e+00h  1
 225 -1.3073384e-01 1.16e+00 1.74e+01  -6.0 3.92e+02  -9.3 6.50e-01 6.70e-01h  1
 226 -1.3106614e-01 4.32e+00 8.79e+01  -6.0 1.99e+03  -9.8 7.03e-02 5.12e-01h  1
 227 -1.3105469e-01 4.30e+00 8.74e+01  -6.0 8.15e+03 -10.3 1.14e-02 1.30e-02h  2
 228 -1.3112624e-01 4.19e+00 7.96e+01  -6.0 8.22e+03 -10.8 1.11e-02 2.48e-02h  1
 229 -1.3147262e-01 1.15e+01 8.39e+01  -6.0 5.95e+02  -9.4 8.31e-02 5.16e-01f  1
iter    objective    inf_pr   inf_du lg(mu)  ||d||  lg(rg) alpha_du alpha_pr  ls
 230 -1.3171619e-01 9.90e+00 7.31e+01  -6.0 4.35e+02  -8.1 1.20e-01 1.64e-01h  1
 231 -1.3200636e-01 1.06e+01 3.78e+01  -6.0 1.97e+02  -8.6 5.47e-01 3.26e-01h  1
 232 -1.3232083e-01 1.05e+01 2.65e+01  -6.0 2.99e+02  -9.1 1.00e+00 4.29e-01h  1
 233 -1.3296027e-01 2.22e+00 2.53e+01  -6.0 4.37e+02  -9.5 4.70e-01 8.16e-01h  1
 234 -1.3344075e-01 5.98e+00 1.09e+01  -6.0 7.53e+02 -10.0 6.29e-01 6.61e-01h  1
 235 -1.3385242e-01 3.06e+00 2.77e+02  -6.0 3.03e+02  -9.6 2.37e-01 6.12e-01h  1
 236 -1.3384554e-01 1.87e+00 2.21e+02  -6.0 1.02e+01  -6.5 7.59e-01 3.87e-01h  1
 237 -1.3382038e-01 9.10e-02 1.53e+02  -6.0 1.53e+01  -6.9 4.08e-01 1.00e+00h  1
 238 -1.3379253e-01 1.63e-02 4.53e-01  -6.0 1.01e+01  -7.4 1.00e+00 1.00e+00h  1
 239 -1.3376033e-01 1.86e-02 2.32e-01  -6.0 2.20e+01  -7.9 1.00e+00 1.00e+00h  1
iter    objective    inf_pr   inf_du lg(mu)  ||d||  lg(rg) alpha_du alpha_pr  ls
 240 -1.3376719e-01 1.79e-01 1.38e+00  -6.0 7.98e+01  -8.4 1.00e+00 1.00e+00h  1
 241 -1.3381812e-01 1.36e+00 9.48e+00  -6.0 2.97e+02  -8.8 7.80e-01 7.28e-01h  1
 242 -1.3390820e-01 5.56e-01 5.55e+00  -6.0 1.59e+02  -9.3 1.00e+00 1.00e+00h  1
 243 -1.3396805e-01 1.27e+00 2.01e+01  -6.0 3.90e+02  -8.9 5.37e-01 5.42e-01h  1
 244 -1.3406120e-01 1.58e+00 3.89e+01  -6.0 2.42e+02  -9.4 1.00e+00 1.00e+00h  1
 245 -1.3408995e-01 1.43e+00 1.07e+03  -6.0 6.68e+02  -9.8 2.37e-01 1.53e-01h  1
 246 -1.3417547e-01 1.18e+00 6.01e+05  -6.0 2.37e+02  -9.4 1.86e-02 1.00e+00h  1
 247 -1.3421070e-01 9.12e-01 4.63e+05  -6.0 2.12e+01  -7.2 8.08e-01 2.29e-01h  1
 248 -1.3424228e-01 3.24e-03 5.39e+01  -6.0 9.47e+00  -7.7 1.00e+00 1.00e+00h  1
 249 -1.3428506e-01 1.99e-03 1.67e+01  -6.0 1.81e+01  -8.1 1.00e+00 6.96e-01H  1
iter    objective    inf_pr   inf_du lg(mu)  ||d||  lg(rg) alpha_du alpha_pr  ls
 250 -1.3426735e-01 4.88e-02 2.02e+00  -6.0 3.98e+01  -8.6 1.00e+00 1.00e+00f  1
 251 -1.3424803e-01 2.87e-01 3.86e+00  -6.0 1.17e+02  -9.1 1.00e+00 1.00e+00h  1
 252 -1.3428249e-01 3.29e+00 2.85e+01  -6.0 3.98e+02  -9.6 7.96e-01 1.00e+00h  1
 253 -1.3429681e-01 4.26e+00 4.92e+01  -6.0 2.10e+01  -8.2 1.00e+00 1.00e+00h  1
 254 -1.3432192e-01 4.49e+00 5.91e+01  -6.0 6.93e+01  -7.8 3.59e-01 1.64e-01h  1
 255 -1.3426686e-01 7.56e+00 1.26e+02  -6.0 2.99e+01  -8.3 1.00e+00 1.00e+00h  1
 256 -1.3435717e-01 5.68e+00 9.82e+01  -6.0 1.11e+02  -8.8 2.29e-01 2.29e-01h  1
 257 -1.3450141e-01 8.84e-01 2.68e+01  -6.0 2.24e+02  -9.3 1.00e+00 1.00e+00h  1
 258 -1.3460290e-01 4.05e+00 3.88e+01  -6.0 1.06e+03  -9.7 3.64e-01 3.93e-01h  1
 259 -1.3479031e-01 2.49e+00 2.19e+01  -6.0 3.61e+02  -9.3 1.00e+00 1.00e+00h  1
iter    objective    inf_pr   inf_du lg(mu)  ||d||  lg(rg) alpha_du alpha_pr  ls
 260 -1.3494023e-01 5.07e+00 5.29e+01  -6.0 2.34e+03  -9.8 1.35e-01 1.69e-01h  1
 261 -1.3522160e-01 5.20e+00 2.37e+04  -6.0 5.61e+02  -9.4 8.73e-02 8.95e-01h  1
 262 -1.3528244e-01 5.27e+00 2.35e+04  -6.0 1.47e+04  -9.8 1.92e-05 8.54e-03H  1
 263 -1.3549511e-01 9.88e-01 1.91e+01  -6.0 4.38e+02  -9.4 1.00e+00 1.00e+00f  1
 264 -1.3575987e-01 2.25e+00 3.65e+01  -6.0 9.89e+02  -9.9 3.42e-01 1.00e+00h  1
 265 -1.3611074e-01 1.42e+00 9.91e+00  -6.0 2.00e+03 -10.4 9.13e-01 1.00e+00h  1
 266 -1.3612439e-01 1.75e+00 3.32e+00  -6.0 7.36e+02  -9.9 1.00e+00 1.00e+00h  1
 267 -1.3621550e-01 2.50e+00 9.92e+00  -6.0 5.19e+03    -  5.86e-02 2.04e-01h  1
 268 -1.3627262e-01 4.28e+00 1.24e+01  -6.0 1.30e+03 -10.4 2.66e-01 9.50e-01h  1
 269 -1.3632926e-01 3.09e-01 1.60e+01  -6.0 5.99e+01  -9.1 4.00e-01 1.00e+00h  1
iter    objective    inf_pr   inf_du lg(mu)  ||d||  lg(rg) alpha_du alpha_pr  ls
 270 -1.3640891e-01 3.51e+00 5.12e+00  -6.0 3.36e+03    -  8.81e-01 7.89e-01h  1
 271 -1.3629938e-01 2.01e+00 1.13e+01  -6.0 2.14e+03    -  4.69e-01 1.00e+00h  1
 272 -1.3628797e-01 4.69e-02 3.74e-01  -6.0 5.12e+01  -9.6 1.00e+00 1.00e+00h  1
 273 -1.3629261e-01 3.05e-01 1.08e+00  -6.0 1.59e+02 -10.0 1.00e+00 1.00e+00h  1
 274 -1.3633314e-01 3.75e+00 6.78e+00  -6.0 5.55e+02 -10.5 5.70e-01 1.00e+00h  1
 275 -1.3635006e-01 1.12e+00 4.00e+00  -6.0 2.94e+02 -10.1 1.00e+00 1.00e+00h  1
 276 -1.3636108e-01 1.82e+00 7.48e+01  -6.0 9.18e+03 -10.6 8.80e-02 2.60e-02h  2
 277 -1.3637564e-01 1.63e+00 6.04e+01  -6.0 5.40e+02 -10.1 1.00e+00 3.30e-01h  1
 278 -1.3672191e-01 3.59e+01 5.32e+01  -6.0 1.79e+03    -  7.43e-02 1.00e+00H  1
 279 -1.3676173e-01 3.28e+01 4.69e+01  -6.0 6.01e+03 -10.6 1.02e-01 8.63e-02h  1
iter    objective    inf_pr   inf_du lg(mu)  ||d||  lg(rg) alpha_du alpha_pr  ls
 280 -1.3674713e-01 1.52e-02 1.39e+01  -6.0 1.01e+00  -5.7 7.47e-01 1.00e+00h  1
 281 -1.3674745e-01 1.05e-02 1.13e+01  -6.0 5.58e-01  -6.1 1.00e+00 3.12e-01h  1
 282 -1.3706080e-01 1.01e+01 1.38e+02  -6.0 1.79e+04    -  2.16e-02 1.00e+00F  1
 283 -1.3702928e-01 1.40e-02 3.02e+00  -6.0 1.02e+00  -6.6 9.53e-01 1.00e+00h  1
 284 -1.3703469e-01 1.01e+00 5.53e+00  -6.0 6.13e+00  -7.1 1.00e+00 1.00e+00h  1
 285 -1.3703728e-01 8.65e-01 4.27e+00  -6.0 4.63e+00  -7.6 6.18e-01 1.00e+00h  1
 286 -1.3704767e-01 2.96e+00 1.63e+01  -6.0 8.27e+00  -8.1 1.00e+00 1.00e+00h  1
 287 -1.3712221e-01 8.69e+00 4.28e+01  -6.0 4.50e+03    -  1.38e-01 1.25e-01h  2
 288 -1.3724439e-01 2.54e+01 2.24e+01  -6.0 1.29e+03    -  1.00e+00 1.00e+00h  1
 289 -1.3722246e-01 1.15e-01 9.71e+00  -6.0 9.60e+00  -8.5 3.28e-01 1.00e+00h  1
iter    objective    inf_pr   inf_du lg(mu)  ||d||  lg(rg) alpha_du alpha_pr  ls
 290 -1.3722908e-01 4.54e-02 1.76e-01  -6.0 1.32e+01  -9.0 1.00e+00 1.00e+00h  1
 291 -1.3725414e-01 2.82e+00 8.48e+01  -6.0 3.42e+01  -8.6 1.93e-01 1.00e+00H  1
 292 -1.3729970e-01 1.92e+00 5.21e+01  -6.0 1.92e+01  -8.2 7.94e-01 1.00e+00H  1
 293 -1.3729957e-01 2.16e+00 4.56e+01  -6.0 1.77e+02  -8.6 3.93e-01 6.62e-02h  3
 294 -1.3732835e-01 1.42e+00 1.19e+01  -6.0 1.87e+02  -9.1 3.24e-01 6.40e-01H  1
 295 -1.3740365e-01 1.74e+00 3.17e+01  -6.0 1.68e+02  -9.6 1.00e+00 1.00e+00h  1
 296 -1.3741010e-01 8.80e-01 6.38e-01  -6.0 2.28e+02 -10.1 1.00e+00 1.00e+00h  1
 297 -1.3741584e-01 1.76e+00 7.87e+00  -6.0 7.25e+04 -10.5 4.63e-03 3.12e-03h  4
 298 -1.3741118e-01 7.32e-02 7.81e-02  -6.0 6.32e+01  -9.2 1.00e+00 1.00e+00h  1
 299 -1.3742255e-01 4.49e-01 1.58e-01  -6.0 1.61e+02  -9.7 1.00e+00 1.00e+00h  1
iter    objective    inf_pr   inf_du lg(mu)  ||d||  lg(rg) alpha_du alpha_pr  ls
 300 -1.3746526e-01 9.48e-01 1.00e+00  -6.0 7.93e+02 -10.2 9.67e-01 1.00e+00H  1
 301 -1.3747172e-01 1.07e+00 7.60e-01  -6.0 3.09e+02  -9.7 1.00e+00 1.00e+00H  1
 302 -1.3746115e-01 2.87e-01 6.17e+00  -6.0 2.43e+02 -10.2 1.00e+00 5.00e-01h  2
 303 -1.3745522e-01 3.39e-01 7.85e+00  -6.0 1.72e+02  -9.8 1.00e+00 2.50e-01h  3
 304 -1.3744598e-01 2.34e-01 3.43e-01  -6.0 5.77e+01  -9.4 1.00e+00 1.00e+00h  1
 305 -1.3744517e-01 5.18e-02 6.70e-02  -6.0 2.74e+01  -8.9 1.00e+00 1.00e+00h  1
 306 -1.3749159e-01 1.17e+00 2.94e+00  -6.0 1.83e+02  -9.4 1.00e+00 1.00e+00H  1
 307 -1.3746979e-01 4.72e-01 2.52e+00  -6.0 2.66e+01  -9.0 1.00e+00 5.00e-01h  2
 308 -1.3745922e-01 1.49e-01 9.17e+00  -6.0 1.80e+02  -9.5 1.00e+00 2.50e-01h  3
 309 -1.3744768e-01 9.48e-02 4.08e-01  -6.0 4.62e+01  -9.0 1.00e+00 1.00e+00H  1
iter    objective    inf_pr   inf_du lg(mu)  ||d||  lg(rg) alpha_du alpha_pr  ls
 310 -1.3750706e-01 5.88e+00 5.81e+00  -6.0 4.62e+02  -9.5 1.00e+00 1.00e+00H  1
 311 -1.3749145e-01 4.34e+00 5.25e+00  -6.0 5.34e+01  -9.1 1.00e+00 2.50e-01h  3
 312 -1.3748890e-01 4.07e+00 4.69e+00  -6.0 1.48e+01  -8.7 1.00e+00 6.25e-02h  5
 313 -1.3748822e-01 4.01e+00 7.17e+00  -6.0 6.16e+01  -9.1 1.00e+00 1.56e-02h  7
 314 -1.3748815e-01 4.00e+00 4.98e+00  -6.0 1.69e+01  -8.7 1.00e+00 1.95e-03h 10
 315 -1.3748812e-01 4.00e+00 8.11e+00  -6.0 7.60e+01  -9.2 1.00e+00 4.88e-04h 12
 316 -1.3745048e-01 2.00e-01 1.43e+00  -6.0 1.95e+01  -8.8 1.00e+00 1.00e+00h  1
 317 -1.3745115e-01 3.61e-01 4.97e-01  -6.0 7.43e+01  -9.3 1.00e+00 1.00e+00h  1
 318 -1.3745152e-01 6.60e-02 8.70e-02  -6.0 3.26e+01  -8.8 1.00e+00 1.00e+00h  1
 319 -1.3744406e-01 2.24e+00 2.97e+00  -6.0 1.83e+02  -9.3 1.00e+00 1.00e+00h  1
iter    objective    inf_pr   inf_du lg(mu)  ||d||  lg(rg) alpha_du alpha_pr  ls
 320 -1.3754883e-01 8.93e+00 3.23e+01  -6.0 6.72e+02  -9.8 7.60e-01 9.64e-01h  1
 321 -1.3824998e-01 1.73e+01 5.50e+01  -6.0 1.71e+03    -  8.70e-01 1.00e+00h  1
 322 -1.3825030e-01 1.72e+01 5.47e+01  -6.0 1.55e+03  -9.4 1.27e-01 4.27e-03h  1
 323 -1.3807016e-01 7.77e+00 3.54e+01  -6.0 1.77e+02  -8.9 1.00e+00 5.61e-01h  1
 324 -1.3810993e-01 1.31e+00 4.91e+00  -6.0 9.98e+02    -  9.53e-01 1.00e+00h  1
 325 -1.3801872e-01 1.95e-01 6.79e-01  -6.0 3.58e+02    -  1.00e+00 1.00e+00h  1
 326 -1.3801540e-01 2.56e-03 1.08e-02  -6.0 1.17e+01    -  1.00e+00 1.00e+00h  1
 327 -1.3801530e-01 3.14e-06 4.87e-06  -6.0 1.20e+00    -  1.00e+00 1.00e+00h  1
 328 -1.3854574e-01 6.26e+00 8.84e+00  -7.5 3.77e+03    -  1.68e-01 1.68e-01h  1
 329 -1.3876187e-01 7.07e+00 1.62e+01  -7.5 4.31e+03    -  5.36e-02 8.38e-02h  1
iter    objective    inf_pr   inf_du lg(mu)  ||d||  lg(rg) alpha_du alpha_pr  ls
 330 -1.3904882e-01 5.20e+00 5.18e+01  -7.5 3.85e+02  -9.4 5.22e-01 2.69e-01h  1
 331 -1.3915737e-01 5.40e+00 3.96e+01  -7.5 3.07e+03    -  1.44e-03 7.67e-02h  1
 332 -1.3936976e-01 1.40e+01 2.54e+01  -7.5 4.11e+03    -  1.37e-01 1.96e-01h  1
 333 -1.3948185e-01 1.19e+01 3.67e+01  -7.5 2.35e+03    -  3.25e-01 1.60e-01h  1
 334 -1.3973662e-01 1.27e+01 1.51e+01  -7.5 2.20e+03    -  3.07e-01 4.42e-01h  1
 335 -1.3990729e-01 1.66e+01 5.28e+01  -7.5 1.52e+03    -  5.61e-02 4.97e-01h  1
 336 -1.3994377e-01 1.33e+01 3.46e+01  -7.5 1.18e+03    -  2.61e-01 2.00e-01h  1
 337 -1.3995215e-01 1.27e+01 3.54e+01  -7.5 3.31e+03    -  1.69e-02 4.04e-02h  1
 338 -1.3997909e-01 1.06e+01 3.01e+01  -7.5 9.29e+02    -  1.58e-01 1.68e-01h  1
 339 -1.3999563e-01 9.23e+00 1.80e+01  -7.5 8.86e+01  -9.9 3.83e-01 1.29e-01h  1
iter    objective    inf_pr   inf_du lg(mu)  ||d||  lg(rg) alpha_du alpha_pr  ls
 340 -1.4006279e-01 4.26e+00 5.80e+00  -7.5 2.07e+02 -10.4 5.00e-01 5.44e-01h  1
 341 -1.4014859e-01 3.79e+00 8.13e+01  -7.5 7.60e+02    -  3.06e-01 7.22e-01h  1
 342 -1.4025192e-01 2.19e+00 1.81e+02  -7.5 3.43e+02    -  6.59e-01 1.00e+00h  1
 343 -1.4027974e-01 1.64e+00 4.39e+02  -7.5 1.38e+02    -  6.29e-01 2.56e-01h  1
 344 -1.4031749e-01 1.14e+00 6.63e+02  -7.5 3.00e+02    -  6.23e-01 3.47e-01h  1
 345 -1.4035689e-01 2.78e+00 2.40e+02  -7.5 1.12e+03    -  2.51e-01 3.43e-01h  1
 346 -1.4038033e-01 2.23e+00 5.68e+02  -7.5 4.74e+02    -  2.84e-01 1.91e-01h  1
 347 -1.4041927e-01 1.32e+01 5.45e+02  -7.5 3.35e+03    -  1.07e-01 2.96e-01h  1
 348 -1.4045097e-01 1.49e+01 1.67e+03  -7.5 2.82e+03    -  4.64e-01 2.10e-01h  1
 349 -1.4045155e-01 1.49e+01 5.54e+03  -7.5 1.04e+04    -  2.31e-02 3.36e-03h  1
iter    objective    inf_pr   inf_du lg(mu)  ||d||  lg(rg) alpha_du alpha_pr  ls
 350 -1.4048702e-01 3.04e+01 4.60e+03  -7.5 1.52e+03    -  4.39e-01 1.00e+00h  1
 351 -1.4049411e-01 2.54e+01 3.05e+03  -7.5 1.59e+03    -  5.86e-02 2.21e-01h  1
 352 -1.4049658e-01 2.48e+01 3.79e+03  -7.5 2.71e+03    -  3.74e-01 2.77e-02h  1
 353 -1.4052030e-01 2.70e+01 2.80e+03  -7.5 3.04e+03    -  1.82e-01 2.54e-01h  1
 354 -1.4052620e-01 2.48e+01 7.88e+04  -7.5 2.30e+03    -  7.34e-03 1.26e-01h  1
 355 -1.4055688e-01 3.94e+01 4.68e+05  -7.5 2.37e+03    -  1.36e-01 5.92e-01h  1
 356 -1.4057178e-01 5.01e+01 3.00e+05  -7.5 3.46e+03    -  1.07e-02 3.64e-01h  1
 357 -1.4057013e-01 4.86e+01 5.75e+04  -7.5 3.56e+03    -  1.86e-02 3.43e-02h  1
 358 -1.4057722e-01 4.26e+01 3.92e+04  -7.5 2.40e+03    -  3.63e-01 2.34e-01h  1
 359 -1.4059545e-01 4.53e+01 6.29e+04  -7.5 1.78e+03    -  8.71e-01 8.31e-01h  1
iter    objective    inf_pr   inf_du lg(mu)  ||d||  lg(rg) alpha_du alpha_pr  ls
 360 -1.4061549e-01 5.15e+01 1.34e+04  -7.5 1.65e+03    -  1.60e-01 1.00e+00h  1
 361 -1.4061731e-01 4.69e+01 1.21e+04  -7.5 1.41e+03    -  3.26e-02 9.70e-02h  1
 362 -1.4060436e-01 1.67e+01 1.58e+04  -7.5 9.61e+02    -  1.34e-02 1.00e+00f  1
 363 -1.4060542e-01 1.02e+01 9.54e+03  -7.5 1.72e+02    -  1.00e+00 3.92e-01h  1
 364 -1.4060695e-01 1.46e+00 4.84e+01  -7.5 1.24e+02    -  1.00e+00 1.00e+00h  1
 365 -1.4061904e-01 1.64e+01 7.72e+01  -7.5 1.28e+03    -  1.02e-01 7.27e-01h  1
 366 -1.4060958e-01 9.83e+00 2.87e+01  -7.5 7.16e+02    -  1.00e+00 1.00e+00h  1
 367 -1.4061941e-01 1.12e+01 4.19e+01  -7.5 7.66e+02    -  1.00e+00 9.79e-01h  1
 368 -1.4062012e-01 4.63e-02 1.70e+00  -7.5 4.70e+01    -  1.00e+00 1.00e+00h  1
 369 -1.4062001e-01 1.24e-03 1.59e-02  -7.5 7.91e+00    -  9.98e-01 1.00e+00h  1
iter    objective    inf_pr   inf_du lg(mu)  ||d||  lg(rg) alpha_du alpha_pr  ls
 370 -1.4062002e-01 1.57e-05 1.10e-04  -7.5 8.83e-01    -  1.00e+00 1.00e+00h  1
 371 -1.4062002e-01 2.32e-08 1.55e-07  -7.5 3.40e-02    -  1.00e+00 1.00e+00h  1
 372 -1.4062328e-01 9.23e-02 2.40e+00  -9.0 2.59e+02    -  2.88e-01 3.04e-01h  1
 373 -1.4063019e-01 2.10e+01 7.95e+01  -9.0 1.17e+05    -  2.16e-02 8.78e-03h  1
 374 -1.4063790e-01 2.77e+01 1.19e+02  -9.0 3.62e+03    -  1.86e-01 2.32e-01h  1
 375 -1.4064255e-01 2.74e+01 1.26e+02  -9.0 4.34e+03    -  2.91e-01 1.62e-01h  1
 376 -1.4064967e-01 4.42e+01 1.33e+02  -9.0 3.43e+03    -  3.20e-01 3.66e-01h  1
 377 -1.4065356e-01 4.07e+01 2.54e+01  -9.0 1.55e+03    -  1.00e-02 8.19e-01h  1
 378 -1.4065068e-01 1.55e-01 7.70e+00  -9.0 1.02e+02    -  4.01e-02 1.00e+00h  1
 379 -1.4065131e-01 8.47e-02 7.37e-01  -9.0 6.42e+01    -  1.00e+00 1.00e+00h  1
iter    objective    inf_pr   inf_du lg(mu)  ||d||  lg(rg) alpha_du alpha_pr  ls
 380 -1.4065130e-01 2.12e-02 8.98e-02  -9.0 3.23e+01    -  1.00e+00 1.00e+00h  1
 381 -1.4065129e-01 6.76e-08 1.75e-05  -9.0 3.78e-02    -  1.00e+00 1.00e+00h  1
 382 -1.4065129e-01 2.82e-10 2.61e-12  -9.0 2.81e-05    -  1.00e+00 1.00e+00h  1

Number of Iterations....: 382

                                   (scaled)                 (unscaled)
Objective...............:  -1.4065129338054702e-01   -1.4065129338054702e-01
Dual infeasibility......:   2.6055130275537408e-12    2.6055130275537408e-12
Constraint violation....:   2.8176224905768904e-10    2.8176224905768904e-10
Complementarity.........:   9.0909098744954593e-10    9.0909098744954593e-10
Overall NLP error.......:   9.0909098744954593e-10    9.0909098744954593e-10


Number of objective function evaluations             = 572
Number of objective gradient evaluations             = 382
Number of equality constraint evaluations            = 572
Number of inequality constraint evaluations          = 573
Number of equality constraint Jacobian evaluations   = 397
Number of inequality constraint Jacobian evaluations = 397
Number of Lagrangian Hessian evaluations             = 382
Total CPU secs in IPOPT (w/o function evaluations)   =    158.472
Total CPU secs in NLP function evaluations           =      6.206

EXIT: Optimal Solution Found.
